c Grid graph 4x11
p edge 44 73
e 1 2
e 1 12
e 2 3
e 2 13
e 3 4
e 3 14
e 4 5
e 4 15
e 5 6
e 5 16
e 6 7
e 6 17
e 7 8
e 7 18
e 8 9
e 8 19
e 9 10
e 9 20
e 10 11
e 10 21
e 11 22
e 12 13
e 12 23
e 13 14
e 13 24
e 14 15
e 14 25
e 15 16
e 15 26
e 16 17
e 16 27
e 17 18
e 17 28
e 18 19
e 18 29
e 19 20
e 19 30
e 20 21
e 20 31
e 21 22
e 21 32
e 22 33
e 23 24
e 23 34
e 24 25
e 24 35
e 25 26
e 25 36
e 26 27
e 26 37
e 27 28
e 27 38
e 28 29
e 28 39
e 29 30
e 29 40
e 30 31
e 30 41
e 31 32
e 31 42
e 32 33
e 32 43
e 33 44
e 34 35
e 35 36
e 36 37
e 37 38
e 38 39
e 39 40
e 40 41
e 41 42
e 42 43
e 43 44
